NAME : instances/clustered-mixed-tsp/instance-17.tsp
COMMENT : No Comment
TYPE : TSP
DIMENSION: 44
EDGE_WEIGHT_TYPE : EUC_2D
NODE_COORD_SECTION
1 6115 4888 
2 6866 7104 
3 7150 7243 
4 6428 7793 
5 6159 4931 
6 850 3352 
7 7177 7190 
8 6370 7319 
9 6860 7197 
10 6601 4325 
11 6640 4211 
12 6358 4699 
13 6907 79 
14 6774 7980 
15 6406 7647 
16 7444 -354 
17 296 3029 
18 6391 4905 
19 856 2969 
20 7063 7406 
21 783 3256 
22 7537 231 
23 803 3092 
24 7006 7432 
25 6946 7371 
26 6946 300 
27 6426 4006 
28 6617 7048 
29 6899 129 
30 6069 4530 
31 7188 7063 
32 7120 368 
33 6610 7729 
34 7239 7417 
35 6981 7155 
36 7110 -428 
37 7053 7868 
38 7283 441 
39 6800 7740 
40 6178 4217 
41 805 3484 
42 6956 7548 
43 6822 5 
44 537 2871 
EOF
